; Property from "Productive Use of Failure in Inductive Proof",
; Andrew Ireland and Alan Bundy, JAR 1996
(declare-datatypes (a)
  ((list :source |Prelude.[]| (nil :source |Prelude.[]|)
     (cons :source |Prelude.:| (head a) (tail (list a))))))
(declare-datatypes ()
  ((Nat :source Definitions.Nat (Z :source Definitions.Z)
     (S :source Definitions.S (proj1-S Nat)))))
(define-fun
  |\|\|| :source |Definitions.\|\||
    ((x Bool) (y Bool)) Bool (ite x true y))
(define-fun-rec
  == :source Definitions.==
    ((x Nat) (y Nat)) Bool
    (match x
      (case Z
        (match y
          (case Z true)
          (case (S z) false)))
      (case (S x2)
        (match y
          (case Z false)
          (case (S y2) (== x2 y2))))))
(define-fun-rec
  elem :source Definitions.elem
    ((x Nat) (y (list Nat))) Bool
    (match y
      (case nil false)
      (case (cons z xs) (|\|\|| (== x z) (elem x xs)))))
(define-fun-rec
  (par (a)
    (++ :source Definitions.++
       ((x (list a)) (y (list a))) (list a)
       (match x
         (case nil y)
         (case (cons z xs) (cons z (++ xs y)))))))
(prove
  :source Properties.prop_T36
  (forall ((x Nat) (y (list Nat)) (z (list Nat)))
    (=> (elem x y) (elem x (++ y z)))))
